result&benchmarks/Data/Ex1/verify/Output/trex01-1_process_dc_iter2Output/Counterexample.2.smt2
(set-info :source |printed by MathSAT|)
(declare-fun |main::local_11@2| () (_ BitVec 8))
(declare-fun |f::d@2| () (_ BitVec 32))
(declare-fun |f::expr_tmp_var_48_int@2| () (_ BitVec 32))
(declare-fun |f::z@3| () (_ BitVec 32))
(declare-fun |f::k@2| () (_ BitVec 32))
(declare-fun |f::expr_tmp_var_46_int@3| () (_ BitVec 32))
(declare-fun |f::expr_tmp_var_47_int@3| () (_ BitVec 32))
(declare-fun |f::iStack_28@2| () (_ BitVec 32))
(assert (let ((.def_40 (bvslt |f::expr_tmp_var_47_int@3| |f::iStack_28@2|)))(let ((.def_42 (not .def_40)))(let ((.def_35 (bvslt |f::iStack_28@2| (_ bv1073741824 32))))(let ((.def_31 (= |f::expr_tmp_var_47_int@3| (_ bv1 32))))(let ((.def_28 (= |f::k@2| |f::expr_tmp_var_46_int@3|)))(let ((.def_24 (= |f::expr_tmp_var_48_int@2| |f::z@3|)))(let ((.def_20 (= |f::d@2| (_ bv1 32))))(let ((.def_15 (= |main::local_11@2| (_ bv0 8))))(let ((.def_17 (not .def_15)))(let ((.def_21 (and .def_17 .def_20)))(let ((.def_25 (and .def_21 .def_24)))(let ((.def_29 (and .def_25 .def_28)))(let ((.def_32 (and .def_29 .def_31)))(let ((.def_37 (and .def_32 .def_35)))(let ((.def_77 (and .def_37 .def_42)))(let ((.def_44 (bvslt |f::expr_tmp_var_47_int@3| (_ bv2 32))))(let ((.def_78 (and .def_44 .def_77))).def_78))))))))))))))))))