result&benchmarks/Data/Ex1/verify/Output/trex01-1_process_dc_iter2Output/Counterexample.2.txt
none:	N81 -{INIT GLOBAL VARS}-> N92
/usr/include/assert.h, lines 69-71:	N92 -{void __assert_fail(const char *__assertion, const char *__file, unsigned int __line, const char *__function);}-> N93
/usr/include/assert.h, lines 74-76:	N93 -{void __assert_perror_fail(int __errnum, const char *__file, unsigned int __line, const char *__function);}-> N94
/usr/include/assert.h, lines 81-82:	N94 -{void __assert(const char *__assertion, const char *__file, int __line);}-> N95
/usr/include/x86_64-linux-gnu/bits/types.h, line 31:	N95 -{typedef unsigned char __u_char;}-> N96
/usr/include/x86_64-linux-gnu/bits/types.h, line 32:	N96 -{typedef unsigned short int __u_short;}-> N97
/usr/include/x86_64-linux-gnu/bits/types.h, line 33:	N97 -{typedef unsigned int __u_int;}-> N98
/usr/include/x86_64-linux-gnu/bits/types.h, line 34:	N98 -{typedef unsigned long int __u_long;}-> N99
/usr/include/x86_64-linux-gnu/bits/types.h, line 37:	N99 -{typedef signed char __int8_t;}-> N100
/usr/include/x86_64-linux-gnu/bits/types.h, line 38:	N100 -{typedef unsigned char __uint8_t;}-> N101
/usr/include/x86_64-linux-gnu/bits/types.h, line 39:	N101 -{typedef signed short int __int16_t;}-> N102
/usr/include/x86_64-linux-gnu/bits/types.h, line 40:	N102 -{typedef unsigned short int __uint16_t;}-> N103
/usr/include/x86_64-linux-gnu/bits/types.h, line 41:	N103 -{typedef signed int __int32_t;}-> N104
/usr/include/x86_64-linux-gnu/bits/types.h, line 42:	N104 -{typedef unsigned int __uint32_t;}-> N105
/usr/include/x86_64-linux-gnu/bits/types.h, line 44:	N105 -{typedef signed long int __int64_t;}-> N106
/usr/include/x86_64-linux-gnu/bits/types.h, line 45:	N106 -{typedef unsigned long int __uint64_t;}-> N107
/usr/include/x86_64-linux-gnu/bits/types.h, line 52:	N107 -{typedef __int8_t __int_least8_t;}-> N108
/usr/include/x86_64-linux-gnu/bits/types.h, line 53:	N108 -{typedef __uint8_t __uint_least8_t;}-> N109
/usr/include/x86_64-linux-gnu/bits/types.h, line 54:	N109 -{typedef __int16_t __int_least16_t;}-> N110
/usr/include/x86_64-linux-gnu/bits/types.h, line 55:	N110 -{typedef __uint16_t __uint_least16_t;}-> N111
/usr/include/x86_64-linux-gnu/bits/types.h, line 56:	N111 -{typedef __int32_t __int_least32_t;}-> N112
/usr/include/x86_64-linux-gnu/bits/types.h, line 57:	N112 -{typedef __uint32_t __uint_least32_t;}-> N113
/usr/include/x86_64-linux-gnu/bits/types.h, line 58:	N113 -{typedef __int64_t __int_least64_t;}-> N114
/usr/include/x86_64-linux-gnu/bits/types.h, line 59:	N114 -{typedef __uint64_t __uint_least64_t;}-> N115
/usr/include/x86_64-linux-gnu/bits/types.h, line 63:	N115 -{typedef long int __quad_t;}-> N116
/usr/include/x86_64-linux-gnu/bits/types.h, line 64:	N116 -{typedef unsigned long int __u_quad_t;}-> N117
/usr/include/x86_64-linux-gnu/bits/types.h, line 72:	N117 -{typedef long int __intmax_t;}-> N118
/usr/include/x86_64-linux-gnu/bits/types.h, line 73:	N118 -{typedef unsigned long int __uintmax_t;}-> N119
/usr/include/x86_64-linux-gnu/bits/types.h, line 145:	N119 -{typedef unsigned long int __dev_t;}-> N120
/usr/include/x86_64-linux-gnu/bits/types.h, line 146:	N120 -{typedef unsigned int __uid_t;}-> N121
/usr/include/x86_64-linux-gnu/bits/types.h, line 147:	N121 -{typedef unsigned int __gid_t;}-> N122
/usr/include/x86_64-linux-gnu/bits/types.h, line 148:	N122 -{typedef unsigned long int __ino_t;}-> N123
/usr/include/x86_64-linux-gnu/bits/types.h, line 149:	N123 -{typedef unsigned long int __ino64_t;}-> N124
/usr/include/x86_64-linux-gnu/bits/types.h, line 150:	N124 -{typedef unsigned int __mode_t;}-> N125
/usr/include/x86_64-linux-gnu/bits/types.h, line 151:	N125 -{typedef unsigned long int __nlink_t;}-> N126
/usr/include/x86_64-linux-gnu/bits/types.h, line 152:	N126 -{typedef long int __off_t;}-> N127
/usr/include/x86_64-linux-gnu/bits/types.h, line 153:	N127 -{typedef long int __off64_t;}-> N128
/usr/include/x86_64-linux-gnu/bits/types.h, line 154:	N128 -{typedef int __pid_t;}-> N129
/usr/include/x86_64-linux-gnu/bits/types.h, line 155:	N129 -{struct __anon_type___fsid_t {   int __val[2]; } ;}-> N130
/usr/include/x86_64-linux-gnu/bits/types.h, line 155:	N130 -{typedef struct __anon_type___fsid_t __fsid_t;}-> N131
/usr/include/x86_64-linux-gnu/bits/types.h, line 156:	N131 -{typedef long int __clock_t;}-> N132
/usr/include/x86_64-linux-gnu/bits/types.h, line 157:	N132 -{typedef unsigned long int __rlim_t;}-> N133
/usr/include/x86_64-linux-gnu/bits/types.h, line 158:	N133 -{typedef unsigned long int __rlim64_t;}-> N134
/usr/include/x86_64-linux-gnu/bits/types.h, line 159:	N134 -{typedef unsigned int __id_t;}-> N135
/usr/include/x86_64-linux-gnu/bits/types.h, line 160:	N135 -{typedef long int __time_t;}-> N136
/usr/include/x86_64-linux-gnu/bits/types.h, line 161:	N136 -{typedef unsigned int __useconds_t;}-> N137
/usr/include/x86_64-linux-gnu/bits/types.h, line 162:	N137 -{typedef long int __suseconds_t;}-> N138
/usr/include/x86_64-linux-gnu/bits/types.h, line 163:	N138 -{typedef long int __suseconds64_t;}-> N139
/usr/include/x86_64-linux-gnu/bits/types.h, line 165:	N139 -{typedef int __daddr_t;}-> N140
/usr/include/x86_64-linux-gnu/bits/types.h, line 166:	N140 -{typedef int __key_t;}-> N141
/usr/include/x86_64-linux-gnu/bits/types.h, line 169:	N141 -{typedef int __clockid_t;}-> N142
/usr/include/x86_64-linux-gnu/bits/types.h, line 172:	N142 -{typedef void *__timer_t;}-> N143
/usr/include/x86_64-linux-gnu/bits/types.h, line 175:	N143 -{typedef long int __blksize_t;}-> N144
/usr/include/x86_64-linux-gnu/bits/types.h, line 180:	N144 -{typedef long int __blkcnt_t;}-> N145
/usr/include/x86_64-linux-gnu/bits/types.h, line 181:	N145 -{typedef long int __blkcnt64_t;}-> N146
/usr/include/x86_64-linux-gnu/bits/types.h, line 184:	N146 -{typedef unsigned long int __fsblkcnt_t;}-> N147
/usr/include/x86_64-linux-gnu/bits/types.h, line 185:	N147 -{typedef unsigned long int __fsblkcnt64_t;}-> N148
/usr/include/x86_64-linux-gnu/bits/types.h, line 188:	N148 -{typedef unsigned long int __fsfilcnt_t;}-> N149
/usr/include/x86_64-linux-gnu/bits/types.h, line 189:	N149 -{typedef unsigned long int __fsfilcnt64_t;}-> N150
/usr/include/x86_64-linux-gnu/bits/types.h, line 192:	N150 -{typedef long int __fsword_t;}-> N151
/usr/include/x86_64-linux-gnu/bits/types.h, line 194:	N151 -{typedef long int __ssize_t;}-> N152
/usr/include/x86_64-linux-gnu/bits/types.h, line 197:	N152 -{typedef long int __syscall_slong_t;}-> N153
/usr/include/x86_64-linux-gnu/bits/types.h, line 199:	N153 -{typedef unsigned long int __syscall_ulong_t;}-> N154
/usr/include/x86_64-linux-gnu/bits/types.h, line 203:	N154 -{typedef __off64_t __loff_t;}-> N155
/usr/include/x86_64-linux-gnu/bits/types.h, line 204:	N155 -{typedef char *__caddr_t;}-> N156
/usr/include/x86_64-linux-gnu/bits/types.h, line 207:	N156 -{typedef long int __intptr_t;}-> N157
/usr/include/x86_64-linux-gnu/bits/types.h, line 210:	N157 -{typedef unsigned int __socklen_t;}-> N158
/usr/include/x86_64-linux-gnu/bits/types.h, line 215:	N158 -{typedef int __sig_atomic_t;}-> N159
/usr/include/x86_64-linux-gnu/bits/stdint-intn.h, line 24:	N159 -{typedef __int8_t int8_t;}-> N160
/usr/include/x86_64-linux-gnu/bits/stdint-intn.h, line 25:	N160 -{typedef __int16_t int16_t;}-> N161
/usr/include/x86_64-linux-gnu/bits/stdint-intn.h, line 26:	N161 -{typedef __int32_t int32_t;}-> N162
/usr/include/x86_64-linux-gnu/bits/stdint-intn.h, line 27:	N162 -{typedef __int64_t int64_t;}-> N163
/usr/include/x86_64-linux-gnu/bits/stdint-uintn.h, line 24:	N163 -{typedef __uint8_t uint8_t;}-> N164
/usr/include/x86_64-linux-gnu/bits/stdint-uintn.h, line 25:	N164 -{typedef __uint16_t uint16_t;}-> N165
/usr/include/x86_64-linux-gnu/bits/stdint-uintn.h, line 26:	N165 -{typedef __uint32_t uint32_t;}-> N166
/usr/include/x86_64-linux-gnu/bits/stdint-uintn.h, line 27:	N166 -{typedef __uint64_t uint64_t;}-> N167
/usr/include/stdint.h, line 43:	N167 -{typedef __int_least8_t int_least8_t;}-> N168
/usr/include/stdint.h, line 44:	N168 -{typedef __int_least16_t int_least16_t;}-> N169
/usr/include/stdint.h, line 45:	N169 -{typedef __int_least32_t int_least32_t;}-> N170
/usr/include/stdint.h, line 46:	N170 -{typedef __int_least64_t int_least64_t;}-> N171
/usr/include/stdint.h, line 49:	N171 -{typedef __uint_least8_t uint_least8_t;}-> N172
/usr/include/stdint.h, line 50:	N172 -{typedef __uint_least16_t uint_least16_t;}-> N173
/usr/include/stdint.h, line 51:	N173 -{typedef __uint_least32_t uint_least32_t;}-> N174
/usr/include/stdint.h, line 52:	N174 -{typedef __uint_least64_t uint_least64_t;}-> N175
/usr/include/stdint.h, line 58:	N175 -{typedef signed char int_fast8_t;}-> N176
/usr/include/stdint.h, line 60:	N176 -{typedef long int int_fast16_t;}-> N177
/usr/include/stdint.h, line 61:	N177 -{typedef long int int_fast32_t;}-> N178
/usr/include/stdint.h, line 62:	N178 -{typedef long int int_fast64_t;}-> N179
/usr/include/stdint.h, line 71:	N179 -{typedef unsigned char uint_fast8_t;}-> N180
/usr/include/stdint.h, line 73:	N180 -{typedef unsigned long int uint_fast16_t;}-> N181
/usr/include/stdint.h, line 74:	N181 -{typedef unsigned long int uint_fast32_t;}-> N182
/usr/include/stdint.h, line 75:	N182 -{typedef unsigned long int uint_fast64_t;}-> N183
/usr/include/stdint.h, line 87:	N183 -{typedef long int intptr_t;}-> N184
/usr/include/stdint.h, line 90:	N184 -{typedef unsigned long int uintptr_t;}-> N185
/usr/include/stdint.h, line 101:	N185 -{typedef __intmax_t intmax_t;}-> N186
/usr/include/stdint.h, line 102:	N186 -{typedef __uintmax_t uintmax_t;}-> N187
/usr/lib/gcc/x86_64-linux-gnu/11/include/stddef.h, line 209:	N187 -{typedef unsigned long int size_t;}-> N188
/usr/lib/gcc/x86_64-linux-gnu/11/include/stddef.h, line 321:	N188 -{typedef int wchar_t;}-> N189
/usr/include/stdlib.h, lines 59-63:	N189 -{struct __anon_type_div_t {   int quot;   int rem; } ;}-> N190
/usr/include/stdlib.h, lines 59-63:	N190 -{typedef struct __anon_type_div_t div_t;}-> N191
/usr/include/stdlib.h, lines 67-71:	N191 -{struct __anon_type_ldiv_t {   long int quot;   long int rem; } ;}-> N192
/usr/include/stdlib.h, lines 67-71:	N192 -{typedef struct __anon_type_ldiv_t ldiv_t;}-> N193
/usr/include/stdlib.h, lines 77-81:	N193 -{struct __anon_type_lldiv_t {   long long int quot;   long long int rem; } ;}-> N194
/usr/include/stdlib.h, lines 77-81:	N194 -{typedef struct __anon_type_lldiv_t lldiv_t;}-> N195
/usr/include/stdlib.h, line 98:	N195 -{size_t __ctype_get_mb_cur_max();}-> N196
/usr/include/stdlib.h, lines 102-103:	N196 -{double atof(const char *__nptr);}-> N197
/usr/include/stdlib.h, lines 105-106:	N197 -{int atoi(const char *__nptr);}-> N198
/usr/include/stdlib.h, lines 108-109:	N198 -{long int atol(const char *__nptr);}-> N199
/usr/include/stdlib.h, lines 113-114:	N199 -{long long int atoll(const char *__nptr);}-> N200
/usr/include/stdlib.h, lines 118-120:	N200 -{double strtod(const char *__nptr, char **__endptr);}-> N201
/usr/include/stdlib.h, lines 124-125:	N201 -{float strtof(const char *__nptr, char **__endptr);}-> N202
/usr/include/stdlib.h, lines 127-129:	N202 -{long double strtold(const char *__nptr, char **__endptr);}-> N203
/usr/include/stdlib.h, lines 177-179:	N203 -{long int strtol(const char *__nptr, char **__endptr, int __base);}-> N204
/usr/include/stdlib.h, lines 181-183:	N204 -{unsigned long int strtoul(const char *__nptr, char **__endptr, int __base);}-> N205
/usr/include/stdlib.h, lines 188-190:	N205 -{long long int strtoq(const char *__nptr, char **__endptr, int __base);}-> N206
/usr/include/stdlib.h, lines 193-195:	N206 -{unsigned long long int strtouq(const char *__nptr, char **__endptr, int __base);}-> N207
/usr/include/stdlib.h, lines 201-203:	N207 -{long long int strtoll(const char *__nptr, char **__endptr, int __base);}-> N208
/usr/include/stdlib.h, lines 206-208:	N208 -{unsigned long long int strtoull(const char *__nptr, char **__endptr, int __base);}-> N209
/usr/include/stdlib.h, line 386:	N209 -{char *l64a(long int __n);}-> N210
/usr/include/stdlib.h, lines 389-390:	N210 -{long int a64l(const char *__s);}-> N211
/usr/include/x86_64-linux-gnu/sys/types.h, line 33:	N211 -{typedef __u_char u_char;}-> N212
/usr/include/x86_64-linux-gnu/sys/types.h, line 34:	N212 -{typedef __u_short u_short;}-> N213
/usr/include/x86_64-linux-gnu/sys/types.h, line 35:	N213 -{typedef __u_int u_int;}-> N214
/usr/include/x86_64-linux-gnu/sys/types.h, line 36:	N214 -{typedef __u_long u_long;}-> N215
/usr/include/x86_64-linux-gnu/sys/types.h, line 37:	N215 -{typedef __quad_t quad_t;}-> N216
/usr/include/x86_64-linux-gnu/sys/types.h, line 38:	N216 -{typedef __u_quad_t u_quad_t;}-> N217
/usr/include/x86_64-linux-gnu/sys/types.h, line 39:	N217 -{typedef __fsid_t fsid_t;}-> N218
/usr/include/x86_64-linux-gnu/sys/types.h, line 42:	N218 -{typedef __loff_t loff_t;}-> N219
/usr/include/x86_64-linux-gnu/sys/types.h, line 47:	N219 -{typedef __ino_t ino_t;}-> N220
/usr/include/x86_64-linux-gnu/sys/types.h, line 59:	N220 -{typedef __dev_t dev_t;}-> N221
/usr/include/x86_64-linux-gnu/sys/types.h, line 64:	N221 -{typedef __gid_t gid_t;}-> N222
/usr/include/x86_64-linux-gnu/sys/types.h, line 69:	N222 -{typedef __mode_t mode_t;}-> N223
/usr/include/x86_64-linux-gnu/sys/types.h, line 74:	N223 -{typedef __nlink_t nlink_t;}-> N224
/usr/include/x86_64-linux-gnu/sys/types.h, line 79:	N224 -{typedef __uid_t uid_t;}-> N225
/usr/include/x86_64-linux-gnu/sys/types.h, line 85:	N225 -{typedef __off_t off_t;}-> N226
/usr/include/x86_64-linux-gnu/sys/types.h, line 97:	N226 -{typedef __pid_t pid_t;}-> N227
/usr/include/x86_64-linux-gnu/sys/types.h, line 103:	N227 -{typedef __id_t id_t;}-> N228
/usr/include/x86_64-linux-gnu/sys/types.h, line 108:	N228 -{typedef __ssize_t ssize_t;}-> N229
/usr/include/x86_64-linux-gnu/sys/types.h, line 114:	N229 -{typedef __daddr_t daddr_t;}-> N230
/usr/include/x86_64-linux-gnu/sys/types.h, line 115:	N230 -{typedef __caddr_t caddr_t;}-> N231
/usr/include/x86_64-linux-gnu/sys/types.h, line 121:	N231 -{typedef __key_t key_t;}-> N232
/usr/include/x86_64-linux-gnu/bits/types/clock_t.h, line 7:	N232 -{typedef __clock_t clock_t;}-> N233
/usr/include/x86_64-linux-gnu/bits/types/clockid_t.h, line 7:	N233 -{typedef __clockid_t clockid_t;}-> N234
/usr/include/x86_64-linux-gnu/bits/types/time_t.h, line 10:	N234 -{typedef __time_t time_t;}-> N235
/usr/include/x86_64-linux-gnu/bits/types/timer_t.h, line 7:	N235 -{typedef __timer_t timer_t;}-> N236
/usr/include/x86_64-linux-gnu/sys/types.h, line 148:	N236 -{typedef unsigned long int ulong;}-> N237
/usr/include/x86_64-linux-gnu/sys/types.h, line 149:	N237 -{typedef unsigned short int ushort;}-> N238
/usr/include/x86_64-linux-gnu/sys/types.h, line 150:	N238 -{typedef unsigned int uint;}-> N239
/usr/include/x86_64-linux-gnu/sys/types.h, line 158:	N239 -{typedef __uint8_t u_int8_t;}-> N240
/usr/include/x86_64-linux-gnu/sys/types.h, line 159:	N240 -{typedef __uint16_t u_int16_t;}-> N241
/usr/include/x86_64-linux-gnu/sys/types.h, line 160:	N241 -{typedef __uint32_t u_int32_t;}-> N242
/usr/include/x86_64-linux-gnu/sys/types.h, line 161:	N242 -{typedef __uint64_t u_int64_t;}-> N243
/usr/include/x86_64-linux-gnu/sys/types.h, line 164:	N243 -{typedef signed int register_t;}-> N244
/usr/include/x86_64-linux-gnu/bits/byteswap.h, lines 33-41:	N244 -{__uint16_t __bswap_16(__uint16_t __bsx);}-> N245
/usr/include/x86_64-linux-gnu/bits/byteswap.h, lines 48-56:	N245 -{__uint32_t __bswap_32(__uint32_t __bsx);}-> N246
/usr/include/x86_64-linux-gnu/bits/byteswap.h, lines 69-77:	N246 -{__uint64_t __bswap_64(__uint64_t __bsx);}-> N247
/usr/include/x86_64-linux-gnu/bits/uintn-identity.h, lines 32-36:	N247 -{__uint16_t __uint16_identity(__uint16_t __x);}-> N248
/usr/include/x86_64-linux-gnu/bits/uintn-identity.h, lines 38-42:	N248 -{__uint32_t __uint32_identity(__uint32_t __x);}-> N249
/usr/include/x86_64-linux-gnu/bits/uintn-identity.h, lines 44-48:	N249 -{__uint64_t __uint64_identity(__uint64_t __x);}-> N250
/usr/include/x86_64-linux-gnu/bits/types/__sigset_t.h, lines 5-8:	N250 -{struct __anon_type___sigset_t {   unsigned long int __val[32UL]; } ;}-> N251
/usr/include/x86_64-linux-gnu/bits/types/__sigset_t.h, lines 5-8:	N251 -{typedef struct __anon_type___sigset_t __sigset_t;}-> N252
/usr/include/x86_64-linux-gnu/bits/types/sigset_t.h, line 7:	N252 -{typedef __sigset_t sigset_t;}-> N253
/usr/include/x86_64-linux-gnu/bits/types/struct_timeval.h, lines 8-17:	N253 -{struct timeval {   __time_t tv_sec;   __suseconds_t tv_usec; } ;}-> N254
/usr/include/x86_64-linux-gnu/bits/types/struct_timespec.h, lines 11-31:	N254 -{struct timespec {   __time_t tv_sec;   __syscall_slong_t tv_nsec; } ;}-> N255
/usr/include/x86_64-linux-gnu/sys/select.h, line 43:	N255 -{typedef __suseconds_t suseconds_t;}-> N256
/usr/include/x86_64-linux-gnu/sys/select.h, line 49:	N256 -{typedef long int __fd_mask;}-> N257
/usr/include/x86_64-linux-gnu/sys/select.h, lines 59-70:	N257 -{struct __anon_type_fd_set {   __fd_mask __fds_bits[32]; } ;}-> N258
/usr/include/x86_64-linux-gnu/sys/select.h, lines 59-70:	N258 -{typedef struct __anon_type_fd_set fd_set;}-> N259
/usr/include/x86_64-linux-gnu/sys/select.h, line 77:	N259 -{typedef __fd_mask fd_mask;}-> N260
/usr/include/x86_64-linux-gnu/sys/select.h, lines 102-105:	N260 -{int select(int __nfds, fd_set *__readfds, fd_set *__writefds, fd_set *__exceptfds, struct timeval *__timeout);}-> N261
/usr/include/x86_64-linux-gnu/sys/select.h, lines 127-131:	N261 -{int pselect(int __nfds, fd_set *__readfds, fd_set *__writefds, fd_set *__exceptfds, const struct timespec *__timeout, const __sigset_t *__sigmask);}-> N262
/usr/include/x86_64-linux-gnu/sys/types.h, line 185:	N262 -{typedef __blksize_t blksize_t;}-> N263
/usr/include/x86_64-linux-gnu/sys/types.h, line 192:	N263 -{typedef __blkcnt_t blkcnt_t;}-> N264
/usr/include/x86_64-linux-gnu/sys/types.h, line 196:	N264 -{typedef __fsblkcnt_t fsblkcnt_t;}-> N265
/usr/include/x86_64-linux-gnu/sys/types.h, line 200:	N265 -{typedef __fsfilcnt_t fsfilcnt_t;}-> N266
/usr/include/x86_64-linux-gnu/bits/atomic_wide_counter.h, lines 28-32:	N266 -{struct __anon_type_0 {   unsigned int __low;   unsigned int __high; } ;}-> N267
/usr/include/x86_64-linux-gnu/bits/atomic_wide_counter.h, lines 25-33:	N267 -{union __anon_type___atomic_wide_counter {   unsigned long long int __value64;   struct __anon_type_0 __value32; } ;}-> N268
/usr/include/x86_64-linux-gnu/bits/atomic_wide_counter.h, lines 25-33:	N268 -{typedef union __anon_type___atomic_wide_counter __atomic_wide_counter;}-> N269
/usr/include/x86_64-linux-gnu/bits/thread-shared-types.h, lines 51-55:	N269 -{struct __pthread_internal_list {   struct __pthread_internal_list *__prev;   struct __pthread_internal_list *__next; } ;}-> N270
/usr/include/x86_64-linux-gnu/bits/thread-shared-types.h, lines 51-55:	N270 -{typedef struct __pthread_internal_list __pthread_list_t;}-> N271
/usr/include/x86_64-linux-gnu/bits/thread-shared-types.h, lines 57-60:	N271 -{struct __pthread_internal_slist {   struct __pthread_internal_slist *__next; } ;}-> N272
/usr/include/x86_64-linux-gnu/bits/thread-shared-types.h, lines 57-60:	N272 -{typedef struct __pthread_internal_slist __pthread_slist_t;}-> N273
/usr/include/x86_64-linux-gnu/bits/struct_mutex.h, lines 22-53:	N273 -{struct __pthread_mutex_s {   int __lock;   unsigned int __count;   int __owner;   unsigned int __nusers;   int __kind;   short __spins;   short __elision;   __pthread_list_t __list; } ;}-> N274
/usr/include/x86_64-linux-gnu/bits/struct_rwlock.h, lines 23-55:	N274 -{struct __pthread_rwlock_arch_t {   unsigned int __readers;   unsigned int __writers;   unsigned int __wrphase_futex;   unsigned int __writers_futex;   unsigned int __pad3;   unsigned int __pad4;   int __cur_writer;   int __shared;   signed char __rwelision;   unsigned char __pad1[7];   unsigned long int __pad2;   unsigned int __flags; } ;}-> N275
/usr/include/x86_64-linux-gnu/bits/thread-shared-types.h, lines 94-103:	N275 -{struct __pthread_cond_s {   __atomic_wide_counter __wseq;   __atomic_wide_counter __g1_start;   unsigned int __g_refs[2];   unsigned int __g_size[2];   unsigned int __g1_orig_size;   unsigned int __wrefs;   unsigned int __g_signals[2]; } ;}-> N276
/usr/include/x86_64-linux-gnu/bits/thread-shared-types.h, line 105:	N276 -{typedef unsigned int __tss_t;}-> N277
/usr/include/x86_64-linux-gnu/bits/thread-shared-types.h, line 106:	N277 -{typedef unsigned long int __thrd_t;}-> N278
/usr/include/x86_64-linux-gnu/bits/thread-shared-types.h, lines 108-111:	N278 -{struct __anon_type___once_flag {   int __data; } ;}-> N279
/usr/include/x86_64-linux-gnu/bits/thread-shared-types.h, lines 108-111:	N279 -{typedef struct __anon_type___once_flag __once_flag;}-> N280
/usr/include/x86_64-linux-gnu/bits/pthreadtypes.h, line 27:	N280 -{typedef unsigned long int pthread_t;}-> N281
/usr/include/x86_64-linux-gnu/bits/pthreadtypes.h, lines 32-36:	N281 -{union __anon_type_pthread_mutexattr_t {   char __size[4];   int __align; } ;}-> N282
/usr/include/x86_64-linux-gnu/bits/pthreadtypes.h, lines 32-36:	N282 -{typedef union __anon_type_pthread_mutexattr_t pthread_mutexattr_t;}-> N283
/usr/include/x86_64-linux-gnu/bits/pthreadtypes.h, lines 41-45:	N283 -{union __anon_type_pthread_condattr_t {   char __size[4];   int __align; } ;}-> N284
/usr/include/x86_64-linux-gnu/bits/pthreadtypes.h, lines 41-45:	N284 -{typedef union __anon_type_pthread_mutexattr_t pthread_condattr_t;}-> N285
/usr/include/x86_64-linux-gnu/bits/pthreadtypes.h, line 49:	N285 -{typedef unsigned int pthread_key_t;}-> N286
/usr/include/x86_64-linux-gnu/bits/pthreadtypes.h, line 53:	N286 -{typedef int pthread_once_t;}-> N287
/usr/include/x86_64-linux-gnu/bits/pthreadtypes.h, lines 56-60:	N287 -{union pthread_attr_t {   char __size[56];   long int __align; } ;}-> N288
/usr/include/x86_64-linux-gnu/bits/pthreadtypes.h, line 62:	N288 -{typedef union pthread_attr_t pthread_attr_t;}-> N289
/usr/include/x86_64-linux-gnu/bits/pthreadtypes.h, lines 67-72:	N289 -{union __anon_type_pthread_mutex_t {   struct __pthread_mutex_s __data;   char __size[40];   long int __align; } ;}-> N290
/usr/include/x86_64-linux-gnu/bits/pthreadtypes.h, lines 67-72:	N290 -{typedef union __anon_type_pthread_mutex_t pthread_mutex_t;}-> N291
/usr/include/x86_64-linux-gnu/bits/pthreadtypes.h, lines 75-80:	N291 -{union __anon_type_pthread_cond_t {   struct __pthread_cond_s __data;   char __size[48];   long long int __align; } ;}-> N292
/usr/include/x86_64-linux-gnu/bits/pthreadtypes.h, lines 75-80:	N292 -{typedef union __anon_type_pthread_cond_t pthread_cond_t;}-> N293
/usr/include/x86_64-linux-gnu/bits/pthreadtypes.h, lines 86-91:	N293 -{union __anon_type_pthread_rwlock_t {   struct __pthread_rwlock_arch_t __data;   char __size[56];   long int __align; } ;}-> N294
/usr/include/x86_64-linux-gnu/bits/pthreadtypes.h, lines 86-91:	N294 -{typedef union __anon_type_pthread_rwlock_t pthread_rwlock_t;}-> N295
/usr/include/x86_64-linux-gnu/bits/pthreadtypes.h, lines 93-97:	N295 -{union __anon_type_pthread_rwlockattr_t {   char __size[8];   long int __align; } ;}-> N296
/usr/include/x86_64-linux-gnu/bits/pthreadtypes.h, lines 93-97:	N296 -{typedef union __anon_type_pthread_rwlockattr_t pthread_rwlockattr_t;}-> N297
/usr/include/x86_64-linux-gnu/bits/pthreadtypes.h, line 103:	N297 -{typedef volatile int pthread_spinlock_t;}-> N298
/usr/include/x86_64-linux-gnu/bits/pthreadtypes.h, lines 108-112:	N298 -{union __anon_type_pthread_barrier_t {   char __size[32];   long int __align; } ;}-> N299
/usr/include/x86_64-linux-gnu/bits/pthreadtypes.h, lines 108-112:	N299 -{typedef union __anon_type_pthread_barrier_t pthread_barrier_t;}-> N300
/usr/include/x86_64-linux-gnu/bits/pthreadtypes.h, lines 114-118:	N300 -{union __anon_type_pthread_barrierattr_t {   char __size[4];   int __align; } ;}-> N301
/usr/include/x86_64-linux-gnu/bits/pthreadtypes.h, lines 114-118:	N301 -{typedef union __anon_type_pthread_mutexattr_t pthread_barrierattr_t;}-> N302
/usr/include/stdlib.h, line 402:	N302 -{long int random();}-> N303
/usr/include/stdlib.h, line 405:	N303 -{void srandom(unsigned int __seed);}-> N304
/usr/include/stdlib.h, lines 411-412:	N304 -{char *initstate(unsigned int __seed, char *__statebuf, size_t __statelen);}-> N305
/usr/include/stdlib.h, line 416:	N305 -{char *setstate(char *__statebuf);}-> N306
/usr/include/stdlib.h, lines 424-433:	N306 -{struct random_data {   int32_t *fptr;   int32_t *rptr;   int32_t *state;   int rand_type;   int rand_deg;   int rand_sep;   int32_t *end_ptr; } ;}-> N307
/usr/include/stdlib.h, lines 435-436:	N307 -{int random_r(struct random_data *__buf, int32_t *__result);}-> N308
/usr/include/stdlib.h, lines 438-439:	N308 -{int srandom_r(unsigned int __seed, struct random_data *__buf);}-> N309
/usr/include/stdlib.h, lines 441-444:	N309 -{int initstate_r(unsigned int __seed, char *__statebuf, size_t __statelen, struct random_data *__buf);}-> N310
/usr/include/stdlib.h, lines 446-448:	N310 -{int setstate_r(char *__statebuf, struct random_data *__buf);}-> N311
/usr/include/stdlib.h, line 454:	N311 -{int rand();}-> N312
/usr/include/stdlib.h, line 456:	N312 -{void srand(unsigned int __seed);}-> N313
/usr/include/stdlib.h, line 460:	N313 -{int rand_r(unsigned int *__seed);}-> N314
/usr/include/stdlib.h, line 468:	N314 -{double drand48();}-> N315
/usr/include/stdlib.h, line 469:	N315 -{double erand48(unsigned short int __xsubi[3]);}-> N316
/usr/include/stdlib.h, line 472:	N316 -{long int lrand48();}-> N317
/usr/include/stdlib.h, lines 473-474:	N317 -{long int nrand48(unsigned short int __xsubi[3]);}-> N318
/usr/include/stdlib.h, line 477:	N318 -{long int mrand48();}-> N319
/usr/include/stdlib.h, lines 478-479:	N319 -{long int jrand48(unsigned short int __xsubi[3]);}-> N320
/usr/include/stdlib.h, line 482:	N320 -{void srand48(long int __seedval);}-> N321
/usr/include/stdlib.h, lines 483-484:	N321 -{unsigned short int *seed48(unsigned short int __seed16v[3]);}-> N322
/usr/include/stdlib.h, line 485:	N322 -{void lcong48(unsigned short int __param[7]);}-> N323
/usr/include/stdlib.h, lines 491-499:	N323 -{struct drand48_data {   unsigned short int __x[3];   unsigned short int __old_x[3];   unsigned short int __c;   unsigned short int __init;   unsigned long long int __a; } ;}-> N324
/usr/include/stdlib.h, lines 502-503:	N324 -{int drand48_r(struct drand48_data *__buffer, double *__result);}-> N325
/usr/include/stdlib.h, lines 504-506:	N325 -{int erand48_r(unsigned short int __xsubi[3], struct drand48_data *__buffer, double *__result);}-> N326
/usr/include/stdlib.h, lines 509-511:	N326 -{int lrand48_r(struct drand48_data *__buffer, long int *__result);}-> N327
/usr/include/stdlib.h, lines 512-515:	N327 -{int nrand48_r(unsigned short int __xsubi[3], struct drand48_data *__buffer, long int *__result);}-> N328
/usr/include/stdlib.h, lines 518-520:	N328 -{int mrand48_r(struct drand48_data *__buffer, long int *__result);}-> N329
/usr/include/stdlib.h, lines 521-524:	N329 -{int jrand48_r(unsigned short int __xsubi[3], struct drand48_data *__buffer, long int *__result);}-> N330
/usr/include/stdlib.h, lines 527-528:	N330 -{int srand48_r(long int __seedval, struct drand48_data *__buffer);}-> N331
/usr/include/stdlib.h, lines 530-531:	N331 -{int seed48_r(unsigned short int __seed16v[3], struct drand48_data *__buffer);}-> N332
/usr/include/stdlib.h, lines 533-535:	N332 -{int lcong48_r(unsigned short int __param[7], struct drand48_data *__buffer);}-> N333
/usr/include/stdlib.h, lines 540-541:	N333 -{void *malloc(size_t __size);}-> N334
/usr/include/stdlib.h, lines 543-544:	N334 -{void *calloc(size_t __nmemb, size_t __size);}-> N335
/usr/include/stdlib.h, lines 551-552:	N335 -{void *realloc(void *__ptr, size_t __size);}-> N336
/usr/include/stdlib.h, line 555:	N336 -{void free(void *__ptr);}-> N337
/usr/include/stdlib.h, lines 563-566:	N337 -{void *reallocarray(void *__ptr, size_t __nmemb, size_t __size);}-> N338
/usr/include/alloca.h, line 32:	N338 -{void *alloca(size_t __size);}-> N339
/usr/include/stdlib.h, lines 580-581:	N339 -{void *valloc(size_t __size);}-> N340
/usr/include/stdlib.h, lines 586-587:	N340 -{int posix_memalign(void **__memptr, size_t __alignment, size_t __size);}-> N341
/usr/include/stdlib.h, lines 592-594:	N341 -{void *aligned_alloc(size_t __alignment, size_t __size);}-> N342
/usr/include/stdlib.h, line 598:	N342 -{void abort();}-> N343
/usr/include/stdlib.h, line 602:	N343 -{int atexit(void (*__func)());}-> N344
/usr/include/stdlib.h, line 610:	N344 -{int at_quick_exit(void (*__func)());}-> N345
/usr/include/stdlib.h, lines 617-618:	N345 -{int on_exit(void (*__func)(int __status, void *__arg), void *__arg);}-> N346
/usr/include/stdlib.h, line 624:	N346 -{void exit(int __status);}-> N347
/usr/include/stdlib.h, line 630:	N347 -{void quick_exit(int __status);}-> N348
/usr/include/stdlib.h, line 636:	N348 -{void _Exit(int __status);}-> N349
/usr/include/stdlib.h, line 641:	N349 -{char *getenv(const char *__name);}-> N350
/usr/include/stdlib.h, line 654:	N350 -{int putenv(char *__string);}-> N351
/usr/include/stdlib.h, lines 660-661:	N351 -{int setenv(const char *__name, const char *__value, int __replace);}-> N352
/usr/include/stdlib.h, line 664:	N352 -{int unsetenv(const char *__name);}-> N353
/usr/include/stdlib.h, line 671:	N353 -{int clearenv();}-> N354
/usr/include/stdlib.h, line 682:	N354 -{char *mktemp(char *__template);}-> N355
/usr/include/stdlib.h, line 695:	N355 -{int mkstemp(char *__template);}-> N356
/usr/include/stdlib.h, line 717:	N356 -{int mkstemps(char *__template, int __suffixlen);}-> N357
/usr/include/stdlib.h, line 738:	N357 -{char *mkdtemp(char *__template);}-> N358
/usr/include/stdlib.h, line 791:	N358 -{int system(const char *__command);}-> N359
/usr/include/stdlib.h, lines 808-809:	N359 -{char *realpath(const char *__name, char *__resolved);}-> N360
/usr/include/stdlib.h, line 816:	N360 -{typedef int (*__compar_fn_t)(const void *, const void *);}-> N361
/usr/include/stdlib.h, lines 828-830:	N361 -{void *bsearch(const void *__key, const void *__base, size_t __nmemb, size_t __size, __compar_fn_t __compar);}-> N362
/usr/include/stdlib.h, lines 838-839:	N362 -{void qsort(void *__base, size_t __nmemb, size_t __size, __compar_fn_t __compar);}-> N363
/usr/include/stdlib.h, line 848:	N363 -{int abs(int __x);}-> N364
/usr/include/stdlib.h, line 849:	N364 -{long int labs(long int __x);}-> N365
/usr/include/stdlib.h, lines 852-853:	N365 -{long long int llabs(long long int __x);}-> N366
/usr/include/stdlib.h, lines 860-861:	N366 -{div_t div(int __numer, int __denom);}-> N367
/usr/include/stdlib.h, lines 862-863:	N367 -{ldiv_t ldiv(long int __numer, long int __denom);}-> N368
/usr/include/stdlib.h, lines 866-868:	N368 -{lldiv_t lldiv(long long int __numer, long long int __denom);}-> N369
/usr/include/stdlib.h, lines 880-881:	N369 -{char *ecvt(double __value, int __ndigit, int *__decpt, int *__sign);}-> N370
/usr/include/stdlib.h, lines 886-887:	N370 -{char *fcvt(double __value, int __ndigit, int *__decpt, int *__sign);}-> N371
/usr/include/stdlib.h, lines 892-893:	N371 -{char *gcvt(double __value, int __ndigit, char *__buf);}-> N372
/usr/include/stdlib.h, lines 898-900:	N372 -{char *qecvt(long double __value, int __ndigit, int *__decpt, int *__sign);}-> N373
/usr/include/stdlib.h, lines 901-903:	N373 -{char *qfcvt(long double __value, int __ndigit, int *__decpt, int *__sign);}-> N374
/usr/include/stdlib.h, lines 904-905:	N374 -{char *qgcvt(long double __value, int __ndigit, char *__buf);}-> N375
/usr/include/stdlib.h, lines 910-912:	N375 -{int ecvt_r(double __value, int __ndigit, int *__decpt, int *__sign, char *__buf, size_t __len);}-> N376
/usr/include/stdlib.h, lines 913-915:	N376 -{int fcvt_r(double __value, int __ndigit, int *__decpt, int *__sign, char *__buf, size_t __len);}-> N377
/usr/include/stdlib.h, lines 917-920:	N377 -{int qecvt_r(long double __value, int __ndigit, int *__decpt, int *__sign, char *__buf, size_t __len);}-> N378
/usr/include/stdlib.h, lines 921-924:	N378 -{int qfcvt_r(long double __value, int __ndigit, int *__decpt, int *__sign, char *__buf, size_t __len);}-> N379
/usr/include/stdlib.h, line 930:	N379 -{int mblen(const char *__s, size_t __n);}-> N380
/usr/include/stdlib.h, lines 933-934:	N380 -{int mbtowc(wchar_t *__pwc, const char *__s, size_t __n);}-> N381
/usr/include/stdlib.h, line 937:	N381 -{int wctomb(char *__s, wchar_t __wchar);}-> N382
/usr/include/stdlib.h, lines 941-943:	N382 -{size_t mbstowcs(wchar_t *__pwcs, const char *__s, size_t __n);}-> N383
/usr/include/stdlib.h, lines 945-949:	N383 -{size_t wcstombs(char *__s, const wchar_t *__pwcs, size_t __n);}-> N384
/usr/include/stdlib.h, line 956:	N384 -{int rpmatch(const char *__response);}-> N385
/usr/include/stdlib.h, lines 967-970:	N385 -{int getsubopt(char **__optionp, char * const *__tokens, char **__valuep);}-> N386
/usr/include/stdlib.h, lines 1013-1014:	N386 -{int getloadavg(double __loadavg[], int __nelem);}-> N387
line 6:	N387 -{typedef unsigned char byte;}-> N388
lines 8-10:	N388 -{void assume(int cond);}-> N389
lines 12-41:	N389 -{void f(int d);}-> N390
lines 43-54:	N390 -{int main();}-> N391
none:	N391 -{Function start dummy edge}-> N82
line 44:	N82 -{char local_11;}-> N83
	local_11 == 2;
line 45:	N83 -{_Bool c;}-> N84
line 46:	N84 -{_Bool expr_tmp_var_50_bool;}-> N85
line 48:	N85 -{[!(local_11 == '\x0')]}-> N88
	local_11 == 2;
	local_11 == 2;
line 51:	N88 -{f(1)}-> N37
none:	N37 -{Function start dummy edge}-> N38
	d == 1;
line 13:	N38 -{byte local_2f;}-> N39
	d == 1;
line 14:	N39 -{char local_2d;}-> N40
line 15:	N40 -{int iStack_28;}-> N41
	iStack_28 == 0;
line 16:	N41 -{int expr_tmp_var_48_int;}-> N42
	expr_tmp_var_48_int == 2;
line 17:	N42 -{int expr_tmp_var_47_int;}-> N43
line 18:	N43 -{int expr_tmp_var_46_int;}-> N44
line 19:	N44 -{int z;}-> N45
line 20:	N45 -{int k;}-> N46
	k == 3;
line 22:	N46 -{z = expr_tmp_var_48_int;}-> N47
	z == 2;
line 23:	N47 -{expr_tmp_var_46_int = k;}-> N48
	expr_tmp_var_46_int == 3;
line 24:	N48 -{expr_tmp_var_47_int = 1;}-> N49
	d == 1;
	iStack_28 == 0;
	expr_tmp_var_48_int == 2;
	expr_tmp_var_47_int == 1;
	expr_tmp_var_46_int == 3;
	z == 2;
	k == 3;
line 25:	N49 -{[iStack_28 < 1073741824]}-> N51
	iStack_28 == 0;
	iStack_28 == 0;
line 26:	N51 -{for}-> N52
line 26:	N52 -{[!(expr_tmp_var_47_int < iStack_28)]}-> N55
	expr_tmp_var_47_int == 1;
	iStack_28 == 0;
	expr_tmp_var_47_int == 1;
iStack_28 == 0;
line 28:	N55 -{[expr_tmp_var_47_int < 2]}-> N57
	expr_tmp_var_47_int == 1;
	expr_tmp_var_47_int == 1;
line 29:	N57 -{int __CPAchecker_TMP_2;}-> N58
line 29:	N58 -{}-> N60
line 29:	N60 -{__CPAchecker_TMP_2 = 0;}-> N62
line 29:	N62 -{4UL;}-> N63
line 29:	N63 -{}-> N66
line 29:	N66 -{__assert_fail("0 && \"Assertion failed: expr_tmp_var_47_int should not be less than 2\"", "/home/zyl/biVerify/CPA_DATA2/C/F/llmfix/realOutput/iterationTry/trex01-1_process_dc_iter2.c", 29, "__PRETTY_FUNCTION__");}-> N393
